
Gurobi 9.1.2 (win64, Java) logging started Sun Nov  7 12:13:19 2021

Academic license - for non-commercial use only - expires 2022-10-30
Gurobi Optimizer version 9.1.2 build v9.1.2rc0 (win64)
Thread count: 6 physical cores, 12 logical processors, using up to 12 threads
Optimize a model with 110 rows, 1000 columns and 2000 nonzeros
Model fingerprint: 0xc9ca8d4e
Variable types: 0 continuous, 1000 integer (1000 binary)
Coefficient statistics:
  Matrix range     [1e+00, 1e+03]
  Objective range  [2e+00, 1e+03]
  Bounds range     [1e+00, 1e+00]
  RHS range        [1e+00, 3e+03]
Found heuristic solution: objective 25065.000000
Presolve time: 0.02s
Presolved: 110 rows, 1000 columns, 2000 nonzeros
Variable types: 0 continuous, 1000 integer (1000 binary)
Presolved: 110 rows, 1000 columns, 2000 nonzeros


Root relaxation: objective 3.784020e+04, 203 iterations, 0.00 seconds

    Nodes    |    Current Node    |     Objective Bounds      |     Work
 Expl Unexpl |  Obj  Depth IntInf | Incumbent    BestBd   Gap | It/Node Time

     0     0 37840.1963    0    7 25065.0000 37840.1963  51.0%     -    0s
H    0     0                    37141.000000 37840.1963  1.88%     -    0s
H    0     0                    37473.000000 37840.1963  0.98%     -    0s
     0     0 37840.1962    0   16 37473.0000 37840.1962  0.98%     -    1s
     0     0 37840.1962    0   22 37473.0000 37840.1962  0.98%     -    2s
H    0     0                    37482.000000 37840.1962  0.96%     -    3s
     0     0 37840.1962    0   17 37482.0000 37840.1962  0.96%     -    3s
     0     0 37840.1962    0   17 37482.0000 37840.1962  0.96%     -    3s
H    0     0                    37587.000000 37840.1962  0.67%     -    3s
     0     0 37840.1962    0   13 37587.0000 37840.1962  0.67%     -    3s
     0     0 37840.1962    0   21 37587.0000 37840.1962  0.67%     -    3s
     0     0 37840.1962    0   22 37587.0000 37840.1962  0.67%     -    3s
     0     0 37840.1962    0   11 37587.0000 37840.1962  0.67%     -    4s
H    0     0                    37616.000000 37840.1962  0.60%     -    5s
     0     0 37840.1962    0   16 37616.0000 37840.1962  0.60%     -    5s
     0     0 37840.1962    0   10 37616.0000 37840.1962  0.60%     -    5s
     0     0 37840.1962    0   12 37616.0000 37840.1962  0.60%     -    5s
     0     0 37840.1962    0   10 37616.0000 37840.1962  0.60%     -    5s
     0     0 37840.1962    0   10 37616.0000 37840.1962  0.60%     -    5s
     0     2 37840.1962    0   10 37616.0000 37840.1962  0.60%     -    6s
   321   328 37840.1962   40   16 37616.0000 37840.1962  0.60%   9.7   10s
H  990  1915                    37752.000000 37840.1962  0.23%   8.4   12s
  2772  2243 37778.9070   76   25 37752.0000 37778.9070  0.07%   7.4   15s
  2883  2283 37778.9070   32   21 37752.0000 37778.9070  0.07%   8.6   21s
 14196  5727 37774.1556   35   15 37752.0000 37774.2422  0.06%   4.7   26s
 22589  9948 37772.3081   60   17 37752.0000 37773.9746  0.06%   5.0   30s
 37657 16437 37761.3529   81   17 37752.0000 37773.7871  0.06%   5.0   37s

Cutting planes:
  Gomory: 14
  Cover: 14
  MIR: 19
  StrongCG: 18
  Flow cover: 17
  Zero half: 7
  RLT: 13

Explored 37663 nodes (191494 simplex iterations) in 38.74 seconds
Thread count was 12 (of 12 available processors)

Solution count 7: 37752 37616 37587 ... 25065

Optimal solution found (tolerance 1.00e-04)
Best objective 3.775200000000e+04, best bound 3.775500000000e+04, gap 0.0079%
